RT is False
Default write of storage_offers_DA.csv just to have a file (but constraint should be inactive)
Reading model...
...model read.
creating competitive generators file...
...competitive generators recorded.
Loading data...
.. day-ahead data with real-time VRE data read.
Compiling instance...
...instance created.
Creating Offer Mitigation (model will solve as dispatch if TRUE)...
NOTE: storage offers will not be mitigated
...storage offer mitigation file created
Converting model to MPEC...
...converted
NOTE: initial MIP solve with only storage competitive to get feasible solution
Solving...

Welcome to IBM(R) ILOG(R) CPLEX(R) Interactive Optimizer 12.9.0.0
  with Simplex, Mixed Integer & Barrier Optimizers
5725-A06 5725-A29 5724-Y48 5724-Y49 5724-Y54 5724-Y55 5655-Y21
Copyright IBM Corp. 1988, 2019.  All Rights Reserved.

Type 'help' for a list of available commands.
Type 'help' followed by a command name for more
information on commands.

CPLEX> Logfile 'cplex.log' closed.
Logfile 'C:\Users\llavin\Desktop\test826\logs\tmpgtv7nrom.cplex.log' open.
CPLEX> New value for parallel optimization mode: -1
CPLEX> New value for emphasis for MIP optimization: 1
CPLEX> New value for mixed integer optimality gap tolerance: 0.01
CPLEX> New value for integrality tolerance: 1e-12
CPLEX> New value for deterministic time limit in ticks: 75000
CPLEX> Problem 'C:\Users\llavin\Desktop\test826\logs\tmpg0hlsupx.pyomo.lp' read.
Read time = 0.24 sec. (13.92 ticks)
CPLEX> Problem name         : C:\Users\llavin\Desktop\test826\logs\tmpg0hlsupx.pyomo.lp
Objective sense      : Maximize
Variables            :   53809  [Nneg: 1,  Box: 22004,  Free: 4464,
                                 Binary: 27340]
Objective nonzeros   :    8973
Linear constraints   :  123253  [Less: 41346,  Greater: 59096,  Equal: 22811]
  Nonzeros           :  293282
  RHS nonzeros       :   67484

Variables            : Min LB: -5000.000        Max UB: 1000000.       
Objective nonzeros   : Min   : 0.05833333       Max   : 833.8667       
Linear constraints   :
  Nonzeros           : Min   : 0.05833333       Max   : 1000000.       
  RHS nonzeros       : Min   : 0.05833333       Max   : 1000000.       
CPLEX> CPXPARAM_Parallel                                -1
CPXPARAM_Emphasis_MIP                            1
CPXPARAM_DetTimeLimit                            75000
CPXPARAM_MIP_Tolerances_MIPGap                   0.01
CPXPARAM_MIP_Tolerances_Integrality              9.9999999999999998e-13
Tried aggregator 4 times.
MIP Presolve eliminated 88735 rows and 18987 columns.
MIP Presolve added 3392 rows and 0 columns.
MIP Presolve modified 24894 coefficients.
Aggregator did 13028 substitutions.
Reduced MIP has 24882 rows, 21234 columns, and 71015 nonzeros.
Reduced MIP has 8391 binaries, 0 generals, 0 SOSs, and 0 indicators.
Presolve time = 0.34 sec. (193.97 ticks)
Probing fixed 388 vars, tightened 4066 bounds.
Probing time = 0.08 sec. (18.74 ticks)
Tried aggregator 2 times.
MIP Presolve eliminated 883 rows and 784 columns.
MIP Presolve modified 3030 coefficients.
Aggregator did 26 substitutions.
Reduced MIP has 23973 rows, 20424 columns, and 68387 nonzeros.
Reduced MIP has 7999 binaries, 0 generals, 0 SOSs, and 0 indicators.
Presolve time = 0.13 sec. (87.24 ticks)
Probing fixed 0 vars, tightened 326 bounds.
Probing time = 0.14 sec. (23.17 ticks)
Clique table members: 44653.
MIP emphasis: integer feasibility.
MIP search method: dynamic search.
Parallel mode: opportunistic, using up to 32 threads.
Root relaxation solution time = 0.36 sec. (561.23 ticks)

        Nodes                                         Cuts/
   Node  Left     Objective  IInf  Best Integer    Best Bound    ItCnt     Gap

      0     0     1433.0177    61                   1433.0177     4781         
*     0+    0                         1433.0177     1433.0177             0.00%
      0     0        cutoff           1433.0177     1433.0177     4781    0.00%
Elapsed time = 1.69 sec. (1248.90 ticks, tree = 0.01 MB, solutions = 1)

Root node processing (before b&c):
  Real time             =    1.70 sec. (1250.84 ticks)
Parallel b&c, 32 threads:
  Real time             =    0.00 sec. (0.00 ticks)
  Sync time (average)   =    0.00 sec.
  Wait time (average)   =    0.00 sec.
                          ------------
Total (root+branch&cut) =    1.70 sec. (1250.84 ticks)

Solution pool: 1 solution saved.

MIP - Integer optimal solution:  Objective =  1.4330176526e+03
Solution time =    1.70 sec.  Iterations = 4781  Nodes = 0
Deterministic time = 1251.00 ticks  (734.58 ticks/sec)

CPLEX> Incumbent solution written to file 'C:\Users\llavin\Desktop\test826\logs\tmpfjkodfwz.cplex.sol'.
CPLEX> NOTE: no warmstart specified for MIP iteration, default behavior is true
NOTE: resolving with all competitive generators using storage-only solution to warmstart
Solving...

Welcome to IBM(R) ILOG(R) CPLEX(R) Interactive Optimizer 12.9.0.0
  with Simplex, Mixed Integer & Barrier Optimizers
5725-A06 5725-A29 5724-Y48 5724-Y49 5724-Y54 5724-Y55 5655-Y21
Copyright IBM Corp. 1988, 2019.  All Rights Reserved.

Type 'help' for a list of available commands.
Type 'help' followed by a command name for more
information on commands.

CPLEX> Logfile 'cplex.log' closed.
Logfile 'C:\Users\llavin\Desktop\test826\logs\tmpsridxwh3.cplex.log' open.
CPLEX> New value for parallel optimization mode: -1
CPLEX> New value for emphasis for MIP optimization: 1
CPLEX> New value for mixed integer optimality gap tolerance: 0.01
CPLEX> New value for integrality tolerance: 1e-12
CPLEX> New value for deterministic time limit in ticks: 75000
CPLEX> Problem 'C:\Users\llavin\Desktop\test826\logs\tmpa14g1klg.pyomo.lp' read.
Read time = 0.24 sec. (13.94 ticks)
CPLEX> MIP start file 'C:\Users\llavin\Desktop\test826\logs\tmpzwzgze2w.cplex.mst' read.
CPLEX> Problem name         : C:\Users\llavin\Desktop\test826\logs\tmpa14g1klg.pyomo.lp
Objective sense      : Maximize
Variables            :   54529  [Nneg: 1,  Box: 22724,  Free: 4464,
                                 Binary: 27340]
Objective nonzeros   :    9669
Linear constraints   :  123253  [Less: 41346,  Greater: 59096,  Equal: 22811]
  Nonzeros           :  293282
  RHS nonzeros       :   67484

Variables            : Min LB: -5000.000        Max UB: 1000000.       
Objective nonzeros   : Min   : 0.05833333       Max   : 781.7417       
Linear constraints   :
  Nonzeros           : Min   : 0.05833333       Max   : 1000000.       
  RHS nonzeros       : Min   : 0.05833333       Max   : 1000000.       
CPLEX> CPXPARAM_Parallel                                -1
CPXPARAM_Emphasis_MIP                            1
CPXPARAM_DetTimeLimit                            75000
CPXPARAM_MIP_Tolerances_MIPGap                   0.01
CPXPARAM_MIP_Tolerances_Integrality              9.9999999999999998e-13
Warning:  No solution found from 1 MIP starts.
Retaining values of one MIP start for possible repair.
Tried aggregator 4 times.
MIP Presolve eliminated 88735 rows and 19707 columns.
MIP Presolve added 3392 rows and 0 columns.
MIP Presolve modified 24894 coefficients.
Aggregator did 13028 substitutions.
Reduced MIP has 24882 rows, 21234 columns, and 71015 nonzeros.
Reduced MIP has 8391 binaries, 0 generals, 0 SOSs, and 0 indicators.
Presolve time = 0.33 sec. (194.39 ticks)
Probing fixed 388 vars, tightened 4066 bounds.
Probing time = 0.08 sec. (18.74 ticks)
Tried aggregator 2 times.
MIP Presolve eliminated 883 rows and 784 columns.
MIP Presolve modified 3030 coefficients.
Aggregator did 26 substitutions.
Reduced MIP has 23973 rows, 20424 columns, and 68387 nonzeros.
Reduced MIP has 7999 binaries, 0 generals, 0 SOSs, and 0 indicators.
Presolve time = 0.13 sec. (87.24 ticks)
Probing fixed 0 vars, tightened 326 bounds.
Probing time = 0.14 sec. (23.17 ticks)
Clique table members: 44653.
MIP emphasis: integer feasibility.
MIP search method: dynamic search.
Parallel mode: opportunistic, using up to 32 threads.
Root relaxation solution time = 0.44 sec. (635.14 ticks)

        Nodes                                         Cuts/
   Node  Left     Objective  IInf  Best Integer    Best Bound    ItCnt     Gap

      0     0    79040.5516   263                  79040.5516     5497         
      0     0    74396.0449   154                    Cuts: 60     5608         
      0     0    74215.6969   148                    Cuts: 27     5632         
      0     0    74215.6969   147                    Cuts: 22     5643         
Repair heuristic found nothing.
      0     3    72003.8124   150                    Cuts: 30     5650         
Elapsed time = 4.16 sec. (1882.38 ticks, tree = 0.02 MB, solutions = 0)
    965   666    52668.3045    98                  72264.7625    10654         
   1673  1128    10971.4851    40                  72264.7625    15276         
   2432  1335    -8237.5683    25                  72264.7625    21559         
   3191  1746  -107730.0476    31                  72264.7625    30405         
   3863  2154   -38338.7109    25                  71106.6987    42828         
*  4116+ 1448                         1433.0177    71106.6987              --- 
   4755  1437     5683.7037    31     1433.0177    71106.6987    59033     --- 
   5470  1420     4405.8371    33     1433.0177    71106.6987    66402     --- 
   6184  1254        cutoff           1433.0177    71106.6987   113720     --- 
*  8102+  640                         1433.0177    11424.9196           697.26%
   8102   643        cutoff           1433.0177     8598.9047   151231  500.06%
Elapsed time = 22.97 sec. (7007.29 ticks, tree = 41.64 MB, solutions = 2)

Cover cuts applied:  1
Implied bound cuts applied:  5
Flow cuts applied:  1
Mixed integer rounding cuts applied:  2
Gomory fractional cuts applied:  5

Root node processing (before b&c):
  Real time             =    2.78 sec. (1838.90 ticks)
Parallel b&c, 32 threads:
  Real time             =   22.59 sec. (5544.93 ticks)
  Sync time (average)   =    2.07 sec.
  Wait time (average)   =    0.25 sec.
                          ------------
Total (root+branch&cut) =   25.38 sec. (7383.83 ticks)

Solution pool: 2 solutions saved.

MIP - Integer optimal, tolerance (0.01/1e-06):  Objective =  1.4330176659e+03
Current MIP best bound =  1.4421527345e+03 (gap = 9.13507, 0.64%)
Solution time =   25.39 sec.  Iterations = 153591  Nodes = 8579 (1)
Deterministic time = 7383.99 ticks  (290.82 ticks/sec)

CPLEX> Incumbent solution written to file 'C:\Users\llavin\Desktop\test826\logs\tmpsj2lrk64.cplex.sol'.
CPLEX> Exporting results... 
